letting n =  10
letting blocks =  [[1, 4], [1, 5], [1, 8], [1, 9], [1, 10], [2, 1], [2, 4], [2, 7], [2, 8], [3, 1], [3, 3], [3, 5], [3, 6], [3, 7], [3, 9], [4, 1], [4, 3], [4, 6], [4, 8], [5, 1], [5, 2], [5, 4], [5, 5], [5, 6], [5, 7], [6, 2], [6, 3], [6, 5], [6, 7], [7, 1], [7, 3], [7, 4], [7, 6], [7, 8], [7, 9], [8, 2], [8, 4], [8, 6], [8, 7], [8, 8], [8, 9], [9, 4], [9, 6], [9, 7], [9, 8], [9, 9], [9, 10], [10, 1], [10, 3], [10, 5], [10, 9], [10, 10]]
